
Gurobi 10.0.1 (linux64) logging started Sun Nov 26 16:05:50 2023

Set parameter LogFile to value "ArtificialInstance/ExperimentV2/S2T4K3/BaRo/gurobi91.txt"
Gurobi Optimizer version 10.0.1 build v10.0.1rc0 (linux64)

CPU model: AMD EPYC 7H12 64-Core Processor, instruction set [SSE2|AVX|AVX2]
Thread count: 128 physical cores, 128 logical processors, using up to 32 threads

Academic license 656792 - for non-commercial use only - registered to b.___@student.vu.nl
Optimize a model with 2997 rows, 4561 columns and 15762 nonzeros
Model fingerprint: 0x27a18b40
Variable types: 1 continuous, 4560 integer (4560 binary)
Coefficient statistics:
  Matrix range     [1e+00, 4e+01]
  Objective range  [1e+00, 2e+01]
  Bounds range     [1e+00, 1e+00]
  RHS range        [1e+00, 1e+00]
Found heuristic solution: objective 559.0458655
Presolve time: 0.02s
Presolved: 2997 rows, 4561 columns, 15762 nonzeros
Variable types: 1 continuous, 4560 integer (4560 binary)

Root relaxation: objective 5.132439e+01, 3369 iterations, 0.15 seconds (0.13 work units)

    Nodes    |    Current Node    |     Objective Bounds      |     Work
 Expl Unexpl |  Obj  Depth IntInf | Incumbent    BestBd   Gap | It/Node Time

     0     0   51.32439    0  660  559.04587   51.32439  90.8%     -    0s
H    0     0                     285.5845967   51.32439  82.0%     -    0s
H    0     0                     263.5180336   51.32439  80.5%     -    0s
H    0     0                     100.5415471   51.32439  49.0%     -    0s
     0     0   55.49610    0  841  100.54155   55.49610  44.8%     -    0s
H    0     0                      96.0755835   55.49610  42.2%     -    0s
H    0     0                      93.1746811   60.74751  34.8%     -    0s
     0     0   60.74751    0  800   93.17468   60.74751  34.8%     -    0s
     0     0   60.74751    0  803   93.17468   60.74751  34.8%     -    0s
H    0     0                      84.2494587   63.49183  24.6%     -    0s
     0     0   63.49183    0  575   84.24946   63.49183  24.6%     -    0s
H    0     0                      79.6831026   63.49183  20.3%     -    0s
     0     0   63.67244    0  893   79.68310   63.67244  20.1%     -    0s
     0     0   63.76244    0  998   79.68310   63.76244  20.0%     -    0s
     0     0   63.86863    0  929   79.68310   63.86863  19.8%     -    0s
     0     0   63.87182    0  929   79.68310   63.87182  19.8%     -    0s
     0     0   65.00116    0 1021   79.68310   65.00116  18.4%     -    1s
     0     0   65.17483    0 1033   79.68310   65.17483  18.2%     -    1s
     0     0   65.19857    0  975   79.68310   65.19857  18.2%     -    1s
     0     0   65.20887    0 1000   79.68310   65.20887  18.2%     -    1s
     0     0   65.20986    0  967   79.68310   65.20986  18.2%     -    1s
H    0     0                      79.3512363   65.49936  17.5%     -    1s
     0     0   65.49936    0  937   79.35124   65.49936  17.5%     -    1s
     0     0   65.59136    0  966   79.35124   65.59136  17.3%     -    1s
     0     0   65.67484    0  961   79.35124   65.67484  17.2%     -    1s
     0     0   65.67484    0  966   79.35124   65.67484  17.2%     -    1s
H    0     0                      78.3674648   66.02871  15.7%     -    1s
     0     0   66.02871    0 1006   78.36746   66.02871  15.7%     -    1s
     0     0   66.05331    0 1018   78.36746   66.05331  15.7%     -    1s
     0     0   66.05331    0 1019   78.36746   66.05331  15.7%     -    1s
     0     0   66.28778    0 1033   78.36746   66.28778  15.4%     -    1s
H    0     0                      76.8475163   66.29210  13.7%     -    1s
     0     0   66.29210    0 1011   76.84752   66.29210  13.7%     -    1s
     0     0   66.37340    0 1025   76.84752   66.37340  13.6%     -    2s
     0     0   66.42748    0 1061   76.84752   66.42748  13.6%     -    2s
     0     0   66.43661    0 1062   76.84752   66.43661  13.5%     -    2s
     0     0   66.44105    0 1061   76.84752   66.44105  13.5%     -    2s
     0     0   66.71966    0 1092   76.84752   66.71966  13.2%     -    2s
     0     0   66.73901    0 1040   76.84752   66.73901  13.2%     -    2s
     0     0   66.73979    0 1055   76.84752   66.73979  13.2%     -    2s
     0     0   66.89977    0 1100   76.84752   66.89977  12.9%     -    2s
     0     0   66.91367    0 1096   76.84752   66.91367  12.9%     -    2s
     0     0   66.91367    0 1077   76.84752   66.91367  12.9%     -    2s
     0     0   66.95779    0 1120   76.84752   66.95779  12.9%     -    2s
     0     0   66.95779    0 1019   76.84752   66.95779  12.9%     -    2s
     0     2   66.95779    0 1019   76.84752   66.95779  12.9%     -    3s
    89    85   71.91714    7  793   76.84752   70.58824  8.15%   652    5s

Cutting planes:
  Gomory: 6
  MIR: 2
  Zero half: 273
  RLT: 168

Explored 699 nodes (179523 simplex iterations) in 6.17 seconds (4.99 work units)
Thread count was 32 (of 128 available processors)

Solution count 10: 76.8475 78.3675 79.3512 ... 285.585

Optimal solution found (tolerance 1.00e-04)
Best objective 7.684751630607e+01, best bound 7.684751630607e+01, gap 0.0000%
